Please solve the following SAT Problem encoded in DIMACS format, provide line of thoughts, write your final answer as a single solution at the end of response with header 'answer: ' : 
p cnf 10 40
-2 7 -5 0
-3 7 1 0
10 9 -3 0
8 10 7 0
-1 -7 -3 0
3 10 9 0
-2 7 1 0
-7 -6 9 0
1 -5 9 0
-3 1 -2 0
6 10 -4 0
-3 7 -1 0
10 8 1 0
8 7 10 0
9 10 5 0
2 10 9 0
5 2 -3 0
-6 -4 7 0
-6 1 10 0
-3 1 -7 0
6 7 -3 0
1 7 -3 0
-7 -6 -9 0
-3 1 -2 0
2 1 -4 0
6 8 -5 0
-4 -3 8 0
-2 -4 3 0
-3 4 -6 0
-6 -4 -5 0
10 9 8 0
10 1 9 0
8 2 -4 0
-2 7 8 0
10 -9 1 0
1 -6 -7 0
-6 8 9 0
-5 -4 10 0
-4 -9 -5 0
6 10 9 0

